
Gurobi 13.0.2 (win64) logging started Thu Jul 23 17:29:07 2026

Set parameter LogFile to value "E:\codes\ExactEBRP\results\gf_gurobi_performance_recovery_round29\runs\stage2__tight_T_seed5103__c3_replica__300s\external\native_logs\R.0.1.1.1.0.0.0.1.1.1_terminal_mip.gurobi.log"
Gurobi Optimizer version 13.0.2 build v13.0.2rc1 (win64 - Windows 10.0 (19045.2))

CPU model: 12th Gen Intel(R) Core(TM) i7-12700KF, instruction set [SSE2|AVX|AVX2]
Thread count: 12 physical cores, 20 logical processors, using up to 1 threads

Non-default parameters:
TimeLimit  2.6499055800000008e+01
MIPGap  0
MIPGapAbs  0
LogToConsole  0
Threads  1

Optimize a model with 11911 rows, 3376 columns and 67363 nonzeros (Min)
Model fingerprint: 0x886a524a
Model has 21 linear objective coefficients
Variable types: 1685 continuous, 1691 integer (1491 binary)
Coefficient statistics:
  Matrix range     [7e-03, 2e+04]
  Objective range  [7e-03, 1e+00]
  Bounds range     [1e-01, 3e+02]
  RHS range        [5e-02, 5e+04]

Presolve removed 1638 rows and 116 columns
Presolve time: 0.21s
Presolved: 10273 rows, 3260 columns, 68941 nonzeros
Variable types: 1625 continuous, 1635 integer (1453 binary)

Root relaxation: objective 1.825059e-01, 3216 iterations, 0.15 seconds (0.42 work units)

    Nodes    |    Current Node    |     Objective Bounds      |     Work
 Expl Unexpl |  Obj  Depth IntInf | Incumbent    BestBd   Gap | It/Node Time

     0     0    0.18251    0  161          -    0.18251      -     -    0s
     0     0    0.19249    0  169          -    0.19249      -     -    0s
     0     0    0.20600    0  254          -    0.20600      -     -    1s
     0     0    0.20605    0  264          -    0.20605      -     -    1s
     0     0    0.25302    0  255          -    0.25302      -     -    1s
     0     0    0.27212    0  291          -    0.27212      -     -    1s
     0     0 infeasible    0               - infeasible      -     -    3s

Cutting planes:
  Learned: 15
  Gomory: 4
  Cover: 40
  Implied bound: 129
  Clique: 20
  MIR: 412
  StrongCG: 7
  Flow cover: 95
  Zero half: 10
  Network: 23
  RLT: 16
  Relax-and-lift: 67
  BQP: 8

Explored 1 nodes (17545 simplex iterations) in 3.22 seconds (5.93 work units)
Thread count was 1 (of 20 available processors)

Solution count 0

Model is infeasible
Best objective -, best bound -, gap -

User-callback calls 1441, time in user-callback 0.00 sec
